unsat
(define-fun inv ((s (_ BitVec 4)) (t (_ BitVec 4))) (_ BitVec 4) (bvadd s (bvadd t #b0111)))
4.13user 0.02system 0:04.16elapsed 99%CPU (0avgtext+0avgdata 42224maxresident)k
8inputs+8outputs (0major+5139minor)pagefaults 0swaps
